1 - 0
2 - 0
3 - 0
4 - 0
5 - 0
6 - 0
7 - 0
8 - 0
9 - 0
10 - 0
11 - 0
12 - 0
13 - 0
14 - 0
15 - 0
16 - 0
17 - 0
18 - 0
19 - 0
20 - 0
21 - 0
22 - 0
23 - 0
24 - 0
25 - 0
26 - 0
27 - 0
28 - 0
29 - 0
30 - 0
31 - 0
32 - 0
33 - 0
34 - 0
35 - 0
36 - 0
37 - 0
38 - 0
39 - 0
40 - 0
41 - 0
42 - 0
43 - 0
44 - 0
45 - 0
46 - 0
47 - 0
48 - 0
49 - 0
50 - 0
51 - 0
52 - 0
53 - 0
54 - 0
55 - 0
56 - 0
57 - 0
58 - 0
59 - 0
60 - 0
61 - 0
62 - 0
63 - 0
64 - 0
65 - 0
66 - 0
67 - 0
68 - 0
69 - 0
70 - 0
71 - 0
72 - 0
73 - 0
74 - 0
75 - 0
76 - 0
77 - 0
78 - 0
79 - 0
80 - 0
81 - 0
82 - 0
83 - 0
84 - 0
85 - 0
86 - 0
87 - 0
88 - 0
89 - 0
90 - 0
91 - 0
92 - 0
93 - 0
94 - 0
95 - 0
96 - 0
97 - 0
98 - 0
99 - 0
100 - 0
101 - 0
102 - 0
103 - 0
104 - 0
105 - 0
106 - 0
107 - 0
108 - 0
109 - 0
110 - 0
111 - 0
112 - 0
113 - 0
114 - 0
115 - 0
116 - 0
117 - 0
118 - 0
119 - 0
120 - 0
121 - 0
122 - 0
123 - 0
124 - 0
125 - 0
126 - 0
127 - 0
128 - 0
129 - 0
130 - 0
131 - 0
132 - 0
133 - 0
134 - 0
135 - 0
136 - 0
137 - 0
138 - 0
139 - 0
140 - 0
141 - 0
142 - 0
143 - 0
144 - 0
145 - 0
146 - 0
147 - 0
148 - 0
149 - 0
150 - 0
151 - 0
152 - 0
153 - 0
154 - 0
155 - 0
156 - 0
157 - 0
158 - 0
159 - 0
160 - 0
161 - 0
162 - 2
163 - 10
164 - 18
165 - 47
166 - 90
167 - 109
168 - 224
169 - 390
170 - 592
171 - 830
172 - 1224
173 - 1719
174 - 2115
175 - 2512
176 - 2971
177 - 3475
178 - 3692
179 - 3997
180 - 4113
181 - 4211
182 - 4510
183 - 4370
184 - 4165
185 - 4022
186 - 3727
187 - 3542
188 - 3148
189 - 2972
190 - 2678
191 - 2475
192 - 2381
193 - 2112
194 - 1902
195 - 1767
196 - 1500
197 - 1489
198 - 1281
199 - 1225
200 - 1130
201 - 1049
202 - 1048
203 - 971
204 - 998
205 - 903
206 - 945
207 - 904
208 - 876
209 - 816
210 - 839
211 - 824
212 - 840
213 - 808
214 - 841
215 - 806
216 - 773
217 - 776
218 - 714
219 - 776
220 - 697
221 - 717
222 - 702
223 - 702
224 - 607
225 - 640
226 - 606
227 - 590
228 - 573
229 - 604
230 - 619
231 - 505
232 - 573
233 - 486
234 - 491
235 - 487
236 - 500
237 - 447
238 - 474
239 - 484
240 - 451
241 - 453
242 - 418
243 - 418
244 - 426
245 - 371
246 - 363
247 - 346
248 - 390
249 - 332
250 - 342
251 - 332
252 - 345
253 - 337
254 - 318
255 - 318
256 - 293
257 - 301
258 - 293
259 - 312
260 - 279
261 - 298
262 - 260
263 - 246
264 - 286
265 - 258
266 - 258
267 - 230
268 - 268
269 - 262
270 - 217
271 - 239
272 - 235
273 - 218
274 - 191
275 - 227
276 - 224
277 - 221
278 - 225
279 - 222
280 - 195
281 - 195
282 - 190
283 - 208
284 - 196
285 - 203
286 - 204
287 - 196
288 - 185
289 - 196
290 - 207
291 - 143
292 - 139
293 - 163
294 - 175
295 - 159
296 - 173
297 - 163
298 - 140
299 - 159
300 - 151
301 - 156
302 - 130
303 - 139
304 - 140
305 - 157
306 - 145
307 - 158
308 - 141
309 - 141
310 - 133
311 - 145
312 - 138
313 - 125
314 - 156
315 - 136
316 - 134
317 - 134
318 - 148
319 - 123
320 - 154
321 - 139
322 - 145
323 - 122
324 - 127
325 - 127
326 - 145
327 - 127
328 - 143
329 - 128
330 - 118
331 - 126
332 - 122
333 - 122
334 - 107
335 - 108
336 - 119
337 - 113
338 - 78
339 - 93
340 - 82
341 - 59
342 - 57
343 - 65
344 - 58
345 - 40
346 - 21
347 - 19
348 - 13
349 - 6
350 - 0

0.1 - 86549
0.2 - 22555
0.3 - 9112
0.4 - 4716
0.5 - 2886
0.6 - 1925
0.7 - 1425
0.8 - 1157
0.9 - 920
1 - 828
